p cnf 352 1608
c p weight 144 0 0
c p weight -144 1 0
c p weight 145 1 0
c p weight -145 1 0
c p weight 349 -1 0
c p weight -349 1 0
c p weight 352 0.5 0
352 0
-139 0
-137 0
-135 0
-133 0
-131 0
-129 0
-127 0
-125 0
-123 0
-121 0
-119 0
-117 0
-115 0
-113 0
-111 0
-109 0
-107 0
-105 0
-103 0
-101 0
-99 0
-97 0
-95 0
-93 0
-91 0
-89 0
-87 0
-85 0
-83 0
-81 0
-79 0
-77 0
-75 0
-73 0
-71 0
-69 0
-67 0
-65 0
-63 0
-61 0
-59 0
-57 0
-55 0
-53 0
-51 0
-49 0
-47 0
-45 0
-43 0
-41 0
-39 0
-37 0
-35 0
-33 0
-31 0
-29 0
-27 0
-25 0
-23 0
-21 0
-19 0
-17 0
-15 0
-13 0
-11 0
-9 0
-7 0
-5 0
-3 0
-1 0
140 -139 137 0
140 -139 138 0
-140 139 137 0
-140 139 138 0
140 139 -137 -138 0
-140 -139 -137 -138 0
141 137 -138 0
141 -137 138 0
-141 137 138 0
-141 -137 -138 0
142 143 -140 0
142 -140 141 0
-142 143 140 0
-142 140 141 0
142 -140 -137 0
-142 140 -137 0
142 -143 140 137 -141 0
-142 -143 -140 137 -141 0
143 -137 141 0
-143 137 141 0
-144 141 0
143 -144 -137 0
-143 -144 137 0
143 144 137 -141 0
-143 144 -137 -141 0
-145 141 0
143 -145 137 0
-143 -145 -137 0
143 145 -137 -141 0
-143 145 137 -141 0
146 -142 143 0
146 -142 141 0
-146 142 143 0
-146 142 141 0
146 142 -143 -141 0
-146 -142 -143 -141 0
147 143 -141 0
147 -143 141 0
-147 143 141 0
-147 -143 -141 0
148 -146 143 0
148 -146 136 0
-148 146 143 0
-148 146 136 0
148 -146 135 -147 0
148 -146 -135 147 0
-148 146 135 -147 0
-148 146 -135 147 0
148 146 -143 135 147 -136 0
148 146 -143 -135 -147 -136 0
-148 -146 -143 135 147 -136 0
-148 -146 -143 -135 -147 -136 0
150 143 -135 0
150 -143 135 0
-150 143 135 0
-150 -143 -135 0
149 147 -136 0
149 -147 136 0
-149 147 136 0
-149 -147 -136 0
151 -148 150 0
151 -148 134 0
-151 148 150 0
-151 148 134 0
151 -148 133 -136 0
151 -148 -133 136 0
-151 148 133 -136 0
-151 148 -133 136 0
151 148 -150 133 136 -134 0
151 148 -150 -133 -136 -134 0
-151 -148 -150 133 136 -134 0
-151 -148 -150 -133 -136 -134 0
153 150 -133 0
153 -150 133 0
-153 150 133 0
-153 -150 -133 0
152 136 -134 0
152 -136 134 0
-152 136 134 0
-152 -136 -134 0
154 -151 153 0
154 -151 132 0
-154 151 153 0
-154 151 132 0
154 -151 131 -134 0
154 -151 -131 134 0
-154 151 131 -134 0
-154 151 -131 134 0
154 151 -153 131 134 -132 0
154 151 -153 -131 -134 -132 0
-154 -151 -153 131 134 -132 0
-154 -151 -153 -131 -134 -132 0
156 153 -131 0
156 -153 131 0
-156 153 131 0
-156 -153 -131 0
155 134 -132 0
155 -134 132 0
-155 134 132 0
-155 -134 -132 0
157 -154 156 0
157 -154 130 0
-157 154 156 0
-157 154 130 0
157 -154 129 -132 0
157 -154 -129 132 0
-157 154 129 -132 0
-157 154 -129 132 0
157 154 -156 129 132 -130 0
157 154 -156 -129 -132 -130 0
-157 -154 -156 129 132 -130 0
-157 -154 -156 -129 -132 -130 0
159 156 -129 0
159 -156 129 0
-159 156 129 0
-159 -156 -129 0
158 132 -130 0
158 -132 130 0
-158 132 130 0
-158 -132 -130 0
160 -157 159 0
160 -157 128 0
-160 157 159 0
-160 157 128 0
160 -157 127 -130 0
160 -157 -127 130 0
-160 157 127 -130 0
-160 157 -127 130 0
160 157 -159 127 130 -128 0
160 157 -159 -127 -130 -128 0
-160 -157 -159 127 130 -128 0
-160 -157 -159 -127 -130 -128 0
162 159 -127 0
162 -159 127 0
-162 159 127 0
-162 -159 -127 0
161 130 -128 0
161 -130 128 0
-161 130 128 0
-161 -130 -128 0
163 -160 162 0
163 -160 126 0
-163 160 162 0
-163 160 126 0
163 -160 125 -128 0
163 -160 -125 128 0
-163 160 125 -128 0
-163 160 -125 128 0
163 160 -162 125 128 -126 0
163 160 -162 -125 -128 -126 0
-163 -160 -162 125 128 -126 0
-163 -160 -162 -125 -128 -126 0
165 162 -125 0
165 -162 125 0
-165 162 125 0
-165 -162 -125 0
164 128 -126 0
164 -128 126 0
-164 128 126 0
-164 -128 -126 0
166 -163 165 0
166 -163 124 0
-166 163 165 0
-166 163 124 0
166 -163 123 -126 0
166 -163 -123 126 0
-166 163 123 -126 0
-166 163 -123 126 0
166 163 -165 123 126 -124 0
166 163 -165 -123 -126 -124 0
-166 -163 -165 123 126 -124 0
-166 -163 -165 -123 -126 -124 0
168 165 -123 0
168 -165 123 0
-168 165 123 0
-168 -165 -123 0
167 126 -124 0
167 -126 124 0
-167 126 124 0
-167 -126 -124 0
169 -166 168 0
169 -166 122 0
-169 166 168 0
-169 166 122 0
169 -166 121 -124 0
169 -166 -121 124 0
-169 166 121 -124 0
-169 166 -121 124 0
169 166 -168 121 124 -122 0
169 166 -168 -121 -124 -122 0
-169 -166 -168 121 124 -122 0
-169 -166 -168 -121 -124 -122 0
171 168 -121 0
171 -168 121 0
-171 168 121 0
-171 -168 -121 0
170 124 -122 0
170 -124 122 0
-170 124 122 0
-170 -124 -122 0
172 -169 171 0
172 -169 120 0
-172 169 171 0
-172 169 120 0
172 -169 119 -122 0
172 -169 -119 122 0
-172 169 119 -122 0
-172 169 -119 122 0
172 169 -171 119 122 -120 0
172 169 -171 -119 -122 -120 0
-172 -169 -171 119 122 -120 0
-172 -169 -171 -119 -122 -120 0
174 171 -119 0
174 -171 119 0
-174 171 119 0
-174 -171 -119 0
173 122 -120 0
173 -122 120 0
-173 122 120 0
-173 -122 -120 0
175 -172 174 0
175 -172 118 0
-175 172 174 0
-175 172 118 0
175 -172 117 -120 0
175 -172 -117 120 0
-175 172 117 -120 0
-175 172 -117 120 0
175 172 -174 117 120 -118 0
175 172 -174 -117 -120 -118 0
-175 -172 -174 117 120 -118 0
-175 -172 -174 -117 -120 -118 0
177 174 -117 0
177 -174 117 0
-177 174 117 0
-177 -174 -117 0
176 120 -118 0
176 -120 118 0
-176 120 118 0
-176 -120 -118 0
178 -175 177 0
178 -175 116 0
-178 175 177 0
-178 175 116 0
178 -175 115 -118 0
178 -175 -115 118 0
-178 175 115 -118 0
-178 175 -115 118 0
178 175 -177 115 118 -116 0
178 175 -177 -115 -118 -116 0
-178 -175 -177 115 118 -116 0
-178 -175 -177 -115 -118 -116 0
180 177 -115 0
180 -177 115 0
-180 177 115 0
-180 -177 -115 0
179 118 -116 0
179 -118 116 0
-179 118 116 0
-179 -118 -116 0
181 -178 180 0
181 -178 114 0
-181 178 180 0
-181 178 114 0
181 -178 113 -116 0
181 -178 -113 116 0
-181 178 113 -116 0
-181 178 -113 116 0
181 178 -180 113 116 -114 0
181 178 -180 -113 -116 -114 0
-181 -178 -180 113 116 -114 0
-181 -178 -180 -113 -116 -114 0
183 180 -113 0
183 -180 113 0
-183 180 113 0
-183 -180 -113 0
182 116 -114 0
182 -116 114 0
-182 116 114 0
-182 -116 -114 0
184 -181 183 0
184 -181 112 0
-184 181 183 0
-184 181 112 0
184 -181 111 -114 0
184 -181 -111 114 0
-184 181 111 -114 0
-184 181 -111 114 0
184 181 -183 111 114 -112 0
184 181 -183 -111 -114 -112 0
-184 -181 -183 111 114 -112 0
-184 -181 -183 -111 -114 -112 0
186 183 -111 0
186 -183 111 0
-186 183 111 0
-186 -183 -111 0
185 114 -112 0
185 -114 112 0
-185 114 112 0
-185 -114 -112 0
187 -184 186 0
187 -184 110 0
-187 184 186 0
-187 184 110 0
187 -184 109 -112 0
187 -184 -109 112 0
-187 184 109 -112 0
-187 184 -109 112 0
187 184 -186 109 112 -110 0
187 184 -186 -109 -112 -110 0
-187 -184 -186 109 112 -110 0
-187 -184 -186 -109 -112 -110 0
189 186 -109 0
189 -186 109 0
-189 186 109 0
-189 -186 -109 0
188 112 -110 0
188 -112 110 0
-188 112 110 0
-188 -112 -110 0
190 -187 189 0
190 -187 108 0
-190 187 189 0
-190 187 108 0
190 -187 107 -110 0
190 -187 -107 110 0
-190 187 107 -110 0
-190 187 -107 110 0
190 187 -189 107 110 -108 0
190 187 -189 -107 -110 -108 0
-190 -187 -189 107 110 -108 0
-190 -187 -189 -107 -110 -108 0
192 189 -107 0
192 -189 107 0
-192 189 107 0
-192 -189 -107 0
191 110 -108 0
191 -110 108 0
-191 110 108 0
-191 -110 -108 0
193 -190 192 0
193 -190 106 0
-193 190 192 0
-193 190 106 0
193 -190 105 -108 0
193 -190 -105 108 0
-193 190 105 -108 0
-193 190 -105 108 0
193 190 -192 105 108 -106 0
193 190 -192 -105 -108 -106 0
-193 -190 -192 105 108 -106 0
-193 -190 -192 -105 -108 -106 0
195 192 -105 0
195 -192 105 0
-195 192 105 0
-195 -192 -105 0
194 108 -106 0
194 -108 106 0
-194 108 106 0
-194 -108 -106 0
196 -193 195 0
196 -193 104 0
-196 193 195 0
-196 193 104 0
196 -193 103 -106 0
196 -193 -103 106 0
-196 193 103 -106 0
-196 193 -103 106 0
196 193 -195 103 106 -104 0
196 193 -195 -103 -106 -104 0
-196 -193 -195 103 106 -104 0
-196 -193 -195 -103 -106 -104 0
198 195 -103 0
198 -195 103 0
-198 195 103 0
-198 -195 -103 0
197 106 -104 0
197 -106 104 0
-197 106 104 0
-197 -106 -104 0
199 -196 198 0
199 -196 102 0
-199 196 198 0
-199 196 102 0
199 -196 101 -104 0
199 -196 -101 104 0
-199 196 101 -104 0
-199 196 -101 104 0
199 196 -198 101 104 -102 0
199 196 -198 -101 -104 -102 0
-199 -196 -198 101 104 -102 0
-199 -196 -198 -101 -104 -102 0
201 198 -101 0
201 -198 101 0
-201 198 101 0
-201 -198 -101 0
200 104 -102 0
200 -104 102 0
-200 104 102 0
-200 -104 -102 0
202 -199 201 0
202 -199 100 0
-202 199 201 0
-202 199 100 0
202 -199 99 -102 0
202 -199 -99 102 0
-202 199 99 -102 0
-202 199 -99 102 0
202 199 -201 99 102 -100 0
202 199 -201 -99 -102 -100 0
-202 -199 -201 99 102 -100 0
-202 -199 -201 -99 -102 -100 0
204 201 -99 0
204 -201 99 0
-204 201 99 0
-204 -201 -99 0
203 102 -100 0
203 -102 100 0
-203 102 100 0
-203 -102 -100 0
205 -202 204 0
205 -202 98 0
-205 202 204 0
-205 202 98 0
205 -202 97 -100 0
205 -202 -97 100 0
-205 202 97 -100 0
-205 202 -97 100 0
205 202 -204 97 100 -98 0
205 202 -204 -97 -100 -98 0
-205 -202 -204 97 100 -98 0
-205 -202 -204 -97 -100 -98 0
207 204 -97 0
207 -204 97 0
-207 204 97 0
-207 -204 -97 0
206 100 -98 0
206 -100 98 0
-206 100 98 0
-206 -100 -98 0
208 -205 207 0
208 -205 96 0
-208 205 207 0
-208 205 96 0
208 -205 95 -98 0
208 -205 -95 98 0
-208 205 95 -98 0
-208 205 -95 98 0
208 205 -207 95 98 -96 0
208 205 -207 -95 -98 -96 0
-208 -205 -207 95 98 -96 0
-208 -205 -207 -95 -98 -96 0
210 207 -95 0
210 -207 95 0
-210 207 95 0
-210 -207 -95 0
209 98 -96 0
209 -98 96 0
-209 98 96 0
-209 -98 -96 0
211 -208 210 0
211 -208 94 0
-211 208 210 0
-211 208 94 0
211 -208 93 -96 0
211 -208 -93 96 0
-211 208 93 -96 0
-211 208 -93 96 0
211 208 -210 93 96 -94 0
211 208 -210 -93 -96 -94 0
-211 -208 -210 93 96 -94 0
-211 -208 -210 -93 -96 -94 0
213 210 -93 0
213 -210 93 0
-213 210 93 0
-213 -210 -93 0
212 96 -94 0
212 -96 94 0
-212 96 94 0
-212 -96 -94 0
214 -211 213 0
214 -211 92 0
-214 211 213 0
-214 211 92 0
214 -211 91 -94 0
214 -211 -91 94 0
-214 211 91 -94 0
-214 211 -91 94 0
214 211 -213 91 94 -92 0
214 211 -213 -91 -94 -92 0
-214 -211 -213 91 94 -92 0
-214 -211 -213 -91 -94 -92 0
216 213 -91 0
216 -213 91 0
-216 213 91 0
-216 -213 -91 0
215 94 -92 0
215 -94 92 0
-215 94 92 0
-215 -94 -92 0
217 -214 216 0
217 -214 90 0
-217 214 216 0
-217 214 90 0
217 -214 89 -92 0
217 -214 -89 92 0
-217 214 89 -92 0
-217 214 -89 92 0
217 214 -216 89 92 -90 0
217 214 -216 -89 -92 -90 0
-217 -214 -216 89 92 -90 0
-217 -214 -216 -89 -92 -90 0
219 216 -89 0
219 -216 89 0
-219 216 89 0
-219 -216 -89 0
218 92 -90 0
218 -92 90 0
-218 92 90 0
-218 -92 -90 0
220 -217 219 0
220 -217 88 0
-220 217 219 0
-220 217 88 0
220 -217 87 -90 0
220 -217 -87 90 0
-220 217 87 -90 0
-220 217 -87 90 0
220 217 -219 87 90 -88 0
220 217 -219 -87 -90 -88 0
-220 -217 -219 87 90 -88 0
-220 -217 -219 -87 -90 -88 0
222 219 -87 0
222 -219 87 0
-222 219 87 0
-222 -219 -87 0
221 90 -88 0
221 -90 88 0
-221 90 88 0
-221 -90 -88 0
223 -220 222 0
223 -220 86 0
-223 220 222 0
-223 220 86 0
223 -220 85 -88 0
223 -220 -85 88 0
-223 220 85 -88 0
-223 220 -85 88 0
223 220 -222 85 88 -86 0
223 220 -222 -85 -88 -86 0
-223 -220 -222 85 88 -86 0
-223 -220 -222 -85 -88 -86 0
225 222 -85 0
225 -222 85 0
-225 222 85 0
-225 -222 -85 0
224 88 -86 0
224 -88 86 0
-224 88 86 0
-224 -88 -86 0
226 -223 225 0
226 -223 84 0
-226 223 225 0
-226 223 84 0
226 -223 83 -86 0
226 -223 -83 86 0
-226 223 83 -86 0
-226 223 -83 86 0
226 223 -225 83 86 -84 0
226 223 -225 -83 -86 -84 0
-226 -223 -225 83 86 -84 0
-226 -223 -225 -83 -86 -84 0
228 225 -83 0
228 -225 83 0
-228 225 83 0
-228 -225 -83 0
227 86 -84 0
227 -86 84 0
-227 86 84 0
-227 -86 -84 0
229 -226 228 0
229 -226 82 0
-229 226 228 0
-229 226 82 0
229 -226 81 -84 0
229 -226 -81 84 0
-229 226 81 -84 0
-229 226 -81 84 0
229 226 -228 81 84 -82 0
229 226 -228 -81 -84 -82 0
-229 -226 -228 81 84 -82 0
-229 -226 -228 -81 -84 -82 0
231 228 -81 0
231 -228 81 0
-231 228 81 0
-231 -228 -81 0
230 84 -82 0
230 -84 82 0
-230 84 82 0
-230 -84 -82 0
232 -229 231 0
232 -229 80 0
-232 229 231 0
-232 229 80 0
232 -229 79 -82 0
232 -229 -79 82 0
-232 229 79 -82 0
-232 229 -79 82 0
232 229 -231 79 82 -80 0
232 229 -231 -79 -82 -80 0
-232 -229 -231 79 82 -80 0
-232 -229 -231 -79 -82 -80 0
234 231 -79 0
234 -231 79 0
-234 231 79 0
-234 -231 -79 0
233 82 -80 0
233 -82 80 0
-233 82 80 0
-233 -82 -80 0
235 -232 234 0
235 -232 78 0
-235 232 234 0
-235 232 78 0
235 -232 77 -80 0
235 -232 -77 80 0
-235 232 77 -80 0
-235 232 -77 80 0
235 232 -234 77 80 -78 0
235 232 -234 -77 -80 -78 0
-235 -232 -234 77 80 -78 0
-235 -232 -234 -77 -80 -78 0
237 234 -77 0
237 -234 77 0
-237 234 77 0
-237 -234 -77 0
236 80 -78 0
236 -80 78 0
-236 80 78 0
-236 -80 -78 0
238 -235 237 0
238 -235 76 0
-238 235 237 0
-238 235 76 0
238 -235 75 -78 0
238 -235 -75 78 0
-238 235 75 -78 0
-238 235 -75 78 0
238 235 -237 75 78 -76 0
238 235 -237 -75 -78 -76 0
-238 -235 -237 75 78 -76 0
-238 -235 -237 -75 -78 -76 0
240 237 -75 0
240 -237 75 0
-240 237 75 0
-240 -237 -75 0
239 78 -76 0
239 -78 76 0
-239 78 76 0
-239 -78 -76 0
241 -238 240 0
241 -238 74 0
-241 238 240 0
-241 238 74 0
241 -238 73 -76 0
241 -238 -73 76 0
-241 238 73 -76 0
-241 238 -73 76 0
241 238 -240 73 76 -74 0
241 238 -240 -73 -76 -74 0
-241 -238 -240 73 76 -74 0
-241 -238 -240 -73 -76 -74 0
243 240 -73 0
243 -240 73 0
-243 240 73 0
-243 -240 -73 0
242 76 -74 0
242 -76 74 0
-242 76 74 0
-242 -76 -74 0
244 -241 243 0
244 -241 72 0
-244 241 243 0
-244 241 72 0
244 -241 71 -74 0
244 -241 -71 74 0
-244 241 71 -74 0
-244 241 -71 74 0
244 241 -243 71 74 -72 0
244 241 -243 -71 -74 -72 0
-244 -241 -243 71 74 -72 0
-244 -241 -243 -71 -74 -72 0
246 243 -71 0
246 -243 71 0
-246 243 71 0
-246 -243 -71 0
245 74 -72 0
245 -74 72 0
-245 74 72 0
-245 -74 -72 0
247 -244 246 0
247 -244 70 0
-247 244 246 0
-247 244 70 0
247 -244 69 -72 0
247 -244 -69 72 0
-247 244 69 -72 0
-247 244 -69 72 0
247 244 -246 69 72 -70 0
247 244 -246 -69 -72 -70 0
-247 -244 -246 69 72 -70 0
-247 -244 -246 -69 -72 -70 0
249 246 -69 0
249 -246 69 0
-249 246 69 0
-249 -246 -69 0
248 72 -70 0
248 -72 70 0
-248 72 70 0
-248 -72 -70 0
250 -247 249 0
250 -247 68 0
-250 247 249 0
-250 247 68 0
250 -247 67 -70 0
250 -247 -67 70 0
-250 247 67 -70 0
-250 247 -67 70 0
250 247 -249 67 70 -68 0
250 247 -249 -67 -70 -68 0
-250 -247 -249 67 70 -68 0
-250 -247 -249 -67 -70 -68 0
252 249 -67 0
252 -249 67 0
-252 249 67 0
-252 -249 -67 0
251 70 -68 0
251 -70 68 0
-251 70 68 0
-251 -70 -68 0
253 -250 252 0
253 -250 66 0
-253 250 252 0
-253 250 66 0
253 -250 65 -68 0
253 -250 -65 68 0
-253 250 65 -68 0
-253 250 -65 68 0
253 250 -252 65 68 -66 0
253 250 -252 -65 -68 -66 0
-253 -250 -252 65 68 -66 0
-253 -250 -252 -65 -68 -66 0
255 252 -65 0
255 -252 65 0
-255 252 65 0
-255 -252 -65 0
254 68 -66 0
254 -68 66 0
-254 68 66 0
-254 -68 -66 0
256 -253 255 0
256 -253 64 0
-256 253 255 0
-256 253 64 0
256 -253 63 -66 0
256 -253 -63 66 0
-256 253 63 -66 0
-256 253 -63 66 0
256 253 -255 63 66 -64 0
256 253 -255 -63 -66 -64 0
-256 -253 -255 63 66 -64 0
-256 -253 -255 -63 -66 -64 0
258 255 -63 0
258 -255 63 0
-258 255 63 0
-258 -255 -63 0
257 66 -64 0
257 -66 64 0
-257 66 64 0
-257 -66 -64 0
259 -256 258 0
259 -256 62 0
-259 256 258 0
-259 256 62 0
259 -256 61 -64 0
259 -256 -61 64 0
-259 256 61 -64 0
-259 256 -61 64 0
259 256 -258 61 64 -62 0
259 256 -258 -61 -64 -62 0
-259 -256 -258 61 64 -62 0
-259 -256 -258 -61 -64 -62 0
261 258 -61 0
261 -258 61 0
-261 258 61 0
-261 -258 -61 0
260 64 -62 0
260 -64 62 0
-260 64 62 0
-260 -64 -62 0
262 -259 261 0
262 -259 60 0
-262 259 261 0
-262 259 60 0
262 -259 59 -62 0
262 -259 -59 62 0
-262 259 59 -62 0
-262 259 -59 62 0
262 259 -261 59 62 -60 0
262 259 -261 -59 -62 -60 0
-262 -259 -261 59 62 -60 0
-262 -259 -261 -59 -62 -60 0
264 261 -59 0
264 -261 59 0
-264 261 59 0
-264 -261 -59 0
263 62 -60 0
263 -62 60 0
-263 62 60 0
-263 -62 -60 0
265 -262 264 0
265 -262 58 0
-265 262 264 0
-265 262 58 0
265 -262 57 -60 0
265 -262 -57 60 0
-265 262 57 -60 0
-265 262 -57 60 0
265 262 -264 57 60 -58 0
265 262 -264 -57 -60 -58 0
-265 -262 -264 57 60 -58 0
-265 -262 -264 -57 -60 -58 0
267 264 -57 0
267 -264 57 0
-267 264 57 0
-267 -264 -57 0
266 60 -58 0
266 -60 58 0
-266 60 58 0
-266 -60 -58 0
268 -265 267 0
268 -265 56 0
-268 265 267 0
-268 265 56 0
268 -265 55 -58 0
268 -265 -55 58 0
-268 265 55 -58 0
-268 265 -55 58 0
268 265 -267 55 58 -56 0
268 265 -267 -55 -58 -56 0
-268 -265 -267 55 58 -56 0
-268 -265 -267 -55 -58 -56 0
270 267 -55 0
270 -267 55 0
-270 267 55 0
-270 -267 -55 0
269 58 -56 0
269 -58 56 0
-269 58 56 0
-269 -58 -56 0
271 -268 270 0
271 -268 54 0
-271 268 270 0
-271 268 54 0
271 -268 53 -56 0
271 -268 -53 56 0
-271 268 53 -56 0
-271 268 -53 56 0
271 268 -270 53 56 -54 0
271 268 -270 -53 -56 -54 0
-271 -268 -270 53 56 -54 0
-271 -268 -270 -53 -56 -54 0
273 270 -53 0
273 -270 53 0
-273 270 53 0
-273 -270 -53 0
272 56 -54 0
272 -56 54 0
-272 56 54 0
-272 -56 -54 0
274 -271 273 0
274 -271 52 0
-274 271 273 0
-274 271 52 0
274 -271 51 -54 0
274 -271 -51 54 0
-274 271 51 -54 0
-274 271 -51 54 0
274 271 -273 51 54 -52 0
274 271 -273 -51 -54 -52 0
-274 -271 -273 51 54 -52 0
-274 -271 -273 -51 -54 -52 0
276 273 -51 0
276 -273 51 0
-276 273 51 0
-276 -273 -51 0
275 54 -52 0
275 -54 52 0
-275 54 52 0
-275 -54 -52 0
277 -274 276 0
277 -274 50 0
-277 274 276 0
-277 274 50 0
277 -274 49 -52 0
277 -274 -49 52 0
-277 274 49 -52 0
-277 274 -49 52 0
277 274 -276 49 52 -50 0
277 274 -276 -49 -52 -50 0
-277 -274 -276 49 52 -50 0
-277 -274 -276 -49 -52 -50 0
279 276 -49 0
279 -276 49 0
-279 276 49 0
-279 -276 -49 0
278 52 -50 0
278 -52 50 0
-278 52 50 0
-278 -52 -50 0
280 -277 279 0
280 -277 48 0
-280 277 279 0
-280 277 48 0
280 -277 47 -50 0
280 -277 -47 50 0
-280 277 47 -50 0
-280 277 -47 50 0
280 277 -279 47 50 -48 0
280 277 -279 -47 -50 -48 0
-280 -277 -279 47 50 -48 0
-280 -277 -279 -47 -50 -48 0
282 279 -47 0
282 -279 47 0
-282 279 47 0
-282 -279 -47 0
281 50 -48 0
281 -50 48 0
-281 50 48 0
-281 -50 -48 0
283 -280 282 0
283 -280 46 0
-283 280 282 0
-283 280 46 0
283 -280 45 -48 0
283 -280 -45 48 0
-283 280 45 -48 0
-283 280 -45 48 0
283 280 -282 45 48 -46 0
283 280 -282 -45 -48 -46 0
-283 -280 -282 45 48 -46 0
-283 -280 -282 -45 -48 -46 0
285 282 -45 0
285 -282 45 0
-285 282 45 0
-285 -282 -45 0
284 48 -46 0
284 -48 46 0
-284 48 46 0
-284 -48 -46 0
286 -283 285 0
286 -283 44 0
-286 283 285 0
-286 283 44 0
286 -283 43 -46 0
286 -283 -43 46 0
-286 283 43 -46 0
-286 283 -43 46 0
286 283 -285 43 46 -44 0
286 283 -285 -43 -46 -44 0
-286 -283 -285 43 46 -44 0
-286 -283 -285 -43 -46 -44 0
288 285 -43 0
288 -285 43 0
-288 285 43 0
-288 -285 -43 0
287 46 -44 0
287 -46 44 0
-287 46 44 0
-287 -46 -44 0
289 -286 288 0
289 -286 42 0
-289 286 288 0
-289 286 42 0
289 -286 41 -44 0
289 -286 -41 44 0
-289 286 41 -44 0
-289 286 -41 44 0
289 286 -288 41 44 -42 0
289 286 -288 -41 -44 -42 0
-289 -286 -288 41 44 -42 0
-289 -286 -288 -41 -44 -42 0
291 288 -41 0
291 -288 41 0
-291 288 41 0
-291 -288 -41 0
290 44 -42 0
290 -44 42 0
-290 44 42 0
-290 -44 -42 0
292 -289 291 0
292 -289 40 0
-292 289 291 0
-292 289 40 0
292 -289 39 -42 0
292 -289 -39 42 0
-292 289 39 -42 0
-292 289 -39 42 0
292 289 -291 39 42 -40 0
292 289 -291 -39 -42 -40 0
-292 -289 -291 39 42 -40 0
-292 -289 -291 -39 -42 -40 0
294 291 -39 0
294 -291 39 0
-294 291 39 0
-294 -291 -39 0
293 42 -40 0
293 -42 40 0
-293 42 40 0
-293 -42 -40 0
295 -292 294 0
295 -292 38 0
-295 292 294 0
-295 292 38 0
295 -292 37 -40 0
295 -292 -37 40 0
-295 292 37 -40 0
-295 292 -37 40 0
295 292 -294 37 40 -38 0
295 292 -294 -37 -40 -38 0
-295 -292 -294 37 40 -38 0
-295 -292 -294 -37 -40 -38 0
297 294 -37 0
297 -294 37 0
-297 294 37 0
-297 -294 -37 0
296 40 -38 0
296 -40 38 0
-296 40 38 0
-296 -40 -38 0
298 -295 297 0
298 -295 36 0
-298 295 297 0
-298 295 36 0
298 -295 35 -38 0
298 -295 -35 38 0
-298 295 35 -38 0
-298 295 -35 38 0
298 295 -297 35 38 -36 0
298 295 -297 -35 -38 -36 0
-298 -295 -297 35 38 -36 0
-298 -295 -297 -35 -38 -36 0
300 297 -35 0
300 -297 35 0
-300 297 35 0
-300 -297 -35 0
299 38 -36 0
299 -38 36 0
-299 38 36 0
-299 -38 -36 0
301 -298 300 0
301 -298 34 0
-301 298 300 0
-301 298 34 0
301 -298 33 -36 0
301 -298 -33 36 0
-301 298 33 -36 0
-301 298 -33 36 0
301 298 -300 33 36 -34 0
301 298 -300 -33 -36 -34 0
-301 -298 -300 33 36 -34 0
-301 -298 -300 -33 -36 -34 0
303 300 -33 0
303 -300 33 0
-303 300 33 0
-303 -300 -33 0
302 36 -34 0
302 -36 34 0
-302 36 34 0
-302 -36 -34 0
304 -301 303 0
304 -301 32 0
-304 301 303 0
-304 301 32 0
304 -301 31 -34 0
304 -301 -31 34 0
-304 301 31 -34 0
-304 301 -31 34 0
304 301 -303 31 34 -32 0
304 301 -303 -31 -34 -32 0
-304 -301 -303 31 34 -32 0
-304 -301 -303 -31 -34 -32 0
306 303 -31 0
306 -303 31 0
-306 303 31 0
-306 -303 -31 0
305 34 -32 0
305 -34 32 0
-305 34 32 0
-305 -34 -32 0
307 -304 306 0
307 -304 30 0
-307 304 306 0
-307 304 30 0
307 -304 29 -32 0
307 -304 -29 32 0
-307 304 29 -32 0
-307 304 -29 32 0
307 304 -306 29 32 -30 0
307 304 -306 -29 -32 -30 0
-307 -304 -306 29 32 -30 0
-307 -304 -306 -29 -32 -30 0
309 306 -29 0
309 -306 29 0
-309 306 29 0
-309 -306 -29 0
308 32 -30 0
308 -32 30 0
-308 32 30 0
-308 -32 -30 0
310 -307 309 0
310 -307 28 0
-310 307 309 0
-310 307 28 0
310 -307 27 -30 0
310 -307 -27 30 0
-310 307 27 -30 0
-310 307 -27 30 0
310 307 -309 27 30 -28 0
310 307 -309 -27 -30 -28 0
-310 -307 -309 27 30 -28 0
-310 -307 -309 -27 -30 -28 0
312 309 -27 0
312 -309 27 0
-312 309 27 0
-312 -309 -27 0
311 30 -28 0
311 -30 28 0
-311 30 28 0
-311 -30 -28 0
313 -310 312 0
313 -310 26 0
-313 310 312 0
-313 310 26 0
313 -310 25 -28 0
313 -310 -25 28 0
-313 310 25 -28 0
-313 310 -25 28 0
313 310 -312 25 28 -26 0
313 310 -312 -25 -28 -26 0
-313 -310 -312 25 28 -26 0
-313 -310 -312 -25 -28 -26 0
315 312 -25 0
315 -312 25 0
-315 312 25 0
-315 -312 -25 0
314 28 -26 0
314 -28 26 0
-314 28 26 0
-314 -28 -26 0
316 -313 315 0
316 -313 24 0
-316 313 315 0
-316 313 24 0
316 -313 23 -26 0
316 -313 -23 26 0
-316 313 23 -26 0
-316 313 -23 26 0
316 313 -315 23 26 -24 0
316 313 -315 -23 -26 -24 0
-316 -313 -315 23 26 -24 0
-316 -313 -315 -23 -26 -24 0
318 315 -23 0
318 -315 23 0
-318 315 23 0
-318 -315 -23 0
317 26 -24 0
317 -26 24 0
-317 26 24 0
-317 -26 -24 0
319 -316 318 0
319 -316 22 0
-319 316 318 0
-319 316 22 0
319 -316 21 -24 0
319 -316 -21 24 0
-319 316 21 -24 0
-319 316 -21 24 0
319 316 -318 21 24 -22 0
319 316 -318 -21 -24 -22 0
-319 -316 -318 21 24 -22 0
-319 -316 -318 -21 -24 -22 0
321 318 -21 0
321 -318 21 0
-321 318 21 0
-321 -318 -21 0
320 24 -22 0
320 -24 22 0
-320 24 22 0
-320 -24 -22 0
322 -319 321 0
322 -319 20 0
-322 319 321 0
-322 319 20 0
322 -319 19 -22 0
322 -319 -19 22 0
-322 319 19 -22 0
-322 319 -19 22 0
322 319 -321 19 22 -20 0
322 319 -321 -19 -22 -20 0
-322 -319 -321 19 22 -20 0
-322 -319 -321 -19 -22 -20 0
324 321 -19 0
324 -321 19 0
-324 321 19 0
-324 -321 -19 0
323 22 -20 0
323 -22 20 0
-323 22 20 0
-323 -22 -20 0
325 -322 324 0
325 -322 18 0
-325 322 324 0
-325 322 18 0
325 -322 17 -20 0
325 -322 -17 20 0
-325 322 17 -20 0
-325 322 -17 20 0
325 322 -324 17 20 -18 0
325 322 -324 -17 -20 -18 0
-325 -322 -324 17 20 -18 0
-325 -322 -324 -17 -20 -18 0
327 324 -17 0
327 -324 17 0
-327 324 17 0
-327 -324 -17 0
326 20 -18 0
326 -20 18 0
-326 20 18 0
-326 -20 -18 0
328 -325 327 0
328 -325 16 0
-328 325 327 0
-328 325 16 0
328 -325 15 -18 0
328 -325 -15 18 0
-328 325 15 -18 0
-328 325 -15 18 0
328 325 -327 15 18 -16 0
328 325 -327 -15 -18 -16 0
-328 -325 -327 15 18 -16 0
-328 -325 -327 -15 -18 -16 0
330 327 -15 0
330 -327 15 0
-330 327 15 0
-330 -327 -15 0
329 18 -16 0
329 -18 16 0
-329 18 16 0
-329 -18 -16 0
331 -328 330 0
331 -328 14 0
-331 328 330 0
-331 328 14 0
331 -328 13 -16 0
331 -328 -13 16 0
-331 328 13 -16 0
-331 328 -13 16 0
331 328 -330 13 16 -14 0
331 328 -330 -13 -16 -14 0
-331 -328 -330 13 16 -14 0
-331 -328 -330 -13 -16 -14 0
333 330 -13 0
333 -330 13 0
-333 330 13 0
-333 -330 -13 0
332 16 -14 0
332 -16 14 0
-332 16 14 0
-332 -16 -14 0
334 -331 333 0
334 -331 12 0
-334 331 333 0
-334 331 12 0
334 -331 11 -14 0
334 -331 -11 14 0
-334 331 11 -14 0
-334 331 -11 14 0
334 331 -333 11 14 -12 0
334 331 -333 -11 -14 -12 0
-334 -331 -333 11 14 -12 0
-334 -331 -333 -11 -14 -12 0
336 333 -11 0
336 -333 11 0
-336 333 11 0
-336 -333 -11 0
335 14 -12 0
335 -14 12 0
-335 14 12 0
-335 -14 -12 0
337 -334 336 0
337 -334 10 0
-337 334 336 0
-337 334 10 0
337 -334 9 -12 0
337 -334 -9 12 0
-337 334 9 -12 0
-337 334 -9 12 0
337 334 -336 9 12 -10 0
337 334 -336 -9 -12 -10 0
-337 -334 -336 9 12 -10 0
-337 -334 -336 -9 -12 -10 0
339 336 -9 0
339 -336 9 0
-339 336 9 0
-339 -336 -9 0
338 12 -10 0
338 -12 10 0
-338 12 10 0
-338 -12 -10 0
340 -337 339 0
340 -337 8 0
-340 337 339 0
-340 337 8 0
340 -337 7 -10 0
340 -337 -7 10 0
-340 337 7 -10 0
-340 337 -7 10 0
340 337 -339 7 10 -8 0
340 337 -339 -7 -10 -8 0
-340 -337 -339 7 10 -8 0
-340 -337 -339 -7 -10 -8 0
342 339 -7 0
342 -339 7 0
-342 339 7 0
-342 -339 -7 0
341 10 -8 0
341 -10 8 0
-341 10 8 0
-341 -10 -8 0
343 -340 342 0
343 -340 6 0
-343 340 342 0
-343 340 6 0
343 -340 5 -8 0
343 -340 -5 8 0
-343 340 5 -8 0
-343 340 -5 8 0
343 340 -342 5 8 -6 0
343 340 -342 -5 -8 -6 0
-343 -340 -342 5 8 -6 0
-343 -340 -342 -5 -8 -6 0
345 342 -5 0
345 -342 5 0
-345 342 5 0
-345 -342 -5 0
344 8 -6 0
344 -8 6 0
-344 8 6 0
-344 -8 -6 0
346 -343 345 0
346 -343 4 0
-346 343 345 0
-346 343 4 0
346 -343 3 -6 0
346 -343 -3 6 0
-346 343 3 -6 0
-346 343 -3 6 0
346 343 -345 3 6 -4 0
346 343 -345 -3 -6 -4 0
-346 -343 -345 3 6 -4 0
-346 -343 -345 -3 -6 -4 0
348 345 -3 0
348 -345 3 0
-348 345 3 0
-348 -345 -3 0
347 6 -4 0
347 -6 4 0
-347 6 4 0
-347 -6 -4 0
349 -346 348 0
349 -346 2 0
-349 346 348 0
-349 346 2 0
349 -346 1 -4 0
349 -346 -1 4 0
-349 346 1 -4 0
-349 346 -1 4 0
349 346 -348 1 4 -2 0
349 346 -348 -1 -4 -2 0
-349 -346 -348 1 4 -2 0
-349 -346 -348 -1 -4 -2 0
351 348 -1 0
351 -348 1 0
-351 348 1 0
-351 -348 -1 0
350 4 -2 0
350 -4 2 0
-350 4 2 0
-350 -4 -2 0
-351 0
-348 0
-350 0
-345 0
-347 0
-342 0
-344 0
-339 0
-341 0
-336 0
-338 0
-333 0
-335 0
-330 0
-332 0
-327 0
-329 0
-324 0
-326 0
-321 0
-323 0
-318 0
-320 0
-315 0
-317 0
-312 0
-314 0
-309 0
-311 0
-306 0
-308 0
-303 0
-305 0
-300 0
-302 0
-297 0
-299 0
-294 0
-296 0
-291 0
-293 0
-288 0
-290 0
-285 0
-287 0
-282 0
-284 0
-279 0
-281 0
-276 0
-278 0
-273 0
-275 0
-270 0
-272 0
-267 0
-269 0
-264 0
-266 0
-261 0
-263 0
-258 0
-260 0
-255 0
-257 0
-252 0
-254 0
-249 0
-251 0
-246 0
-248 0
-243 0
-245 0
-240 0
-242 0
-237 0
-239 0
-234 0
-236 0
-231 0
-233 0
-228 0
-230 0
-225 0
-227 0
-222 0
-224 0
-219 0
-221 0
-216 0
-218 0
-213 0
-215 0
-210 0
-212 0
-207 0
-209 0
-204 0
-206 0
-201 0
-203 0
-198 0
-200 0
-195 0
-197 0
-192 0
-194 0
-189 0
-191 0
-186 0
-188 0
-183 0
-185 0
-180 0
-182 0
-177 0
-179 0
-174 0
-176 0
-171 0
-173 0
-168 0
-170 0
-165 0
-167 0
-162 0
-164 0
-159 0
-161 0
-156 0
-158 0
-153 0
-155 0
-150 0
-152 0
-143 0
-149 0
